&bands
prefix = 'MoS2'
outdir = 'tmp'
filband = 'band.dat'
lsigma(3) = .true.
lp = .true.
/

