begin projections
 S:p
 Mo:d
end projections
guiding_centres=true

num_bands = 80 
num_wann = 22

iprint = 2
dis_num_iter =  500
dis_win_min =  -12
dis_win_max =  2.5
dis_froz_min = -7.8
dis_froz_max = -0.51
num_iter  =   10000
mp_grid : 12 12 1
spinors = .true.

begin unit_cell_cart
bohr
   5.937701271208027   0.000000000000000   0.000000000
  -2.9688506356040136  5.142200140949306   0.000000000
   0.000000000000000   0.000000000000000   47.50161016966422
end unit_cell_cart

write_u_matrices = .true.
write_xyz = .true.

#restart = plot
BANDS_PLOT = TRUE
BANDS_PLOT_FORMAT = gnuplot
BANDS_NUM_POINTS = 100

BEGIN KPOINT_PATH
M 0.0000 0.5000 0.0000  K -0.3333 0.6667 0.000
K -0.3333 0.6667 0.000  G 0.0000 0.0000 0.000
G 0.0000 0.0000 0.0000  K 0.3333 0.3333 0.000
K 0.3333 0.3333 0.0000  M 0.0000 0.5000 0.000
END KPOINT_PATH

begin atoms_frac
S             0.0000011533        0.9999988467        0.1796747809
S             0.0000011298        0.9999988702        0.3037863646
Mo            0.6666677413        0.3333322886        0.2417305690
end atoms_frac

begin kpoints
0.00000000e+00  0.00000000e+00  0.00000000e+00
8.33333333e-02  0.00000000e+00  0.00000000e+00
1.66666667e-01  0.00000000e+00  0.00000000e+00
2.50000000e-01  0.00000000e+00  0.00000000e+00
3.33333333e-01  0.00000000e+00  0.00000000e+00
4.16666667e-01  0.00000000e+00  0.00000000e+00
5.00000000e-01  0.00000000e+00  0.00000000e+00
5.83333333e-01  0.00000000e+00  0.00000000e+00
6.66666667e-01  0.00000000e+00  0.00000000e+00
7.50000000e-01  0.00000000e+00  0.00000000e+00
8.33333333e-01  0.00000000e+00  0.00000000e+00
9.16666667e-01  0.00000000e+00  0.00000000e+00
0.00000000e+00  8.33333333e-02  0.00000000e+00
8.33333333e-02  8.33333333e-02  0.00000000e+00
1.66666667e-01  8.33333333e-02  0.00000000e+00
2.50000000e-01  8.33333333e-02  0.00000000e+00
3.33333333e-01  8.33333333e-02  0.00000000e+00
4.16666667e-01  8.33333333e-02  0.00000000e+00
5.00000000e-01  8.33333333e-02  0.00000000e+00
5.83333333e-01  8.33333333e-02  0.00000000e+00
6.66666667e-01  8.33333333e-02  0.00000000e+00
7.50000000e-01  8.33333333e-02  0.00000000e+00
8.33333333e-01  8.33333333e-02  0.00000000e+00
9.16666667e-01  8.33333333e-02  0.00000000e+00
0.00000000e+00  1.66666667e-01  0.00000000e+00
8.33333333e-02  1.66666667e-01  0.00000000e+00
1.66666667e-01  1.66666667e-01  0.00000000e+00
2.50000000e-01  1.66666667e-01  0.00000000e+00
3.33333333e-01  1.66666667e-01  0.00000000e+00
4.16666667e-01  1.66666667e-01  0.00000000e+00
5.00000000e-01  1.66666667e-01  0.00000000e+00
5.83333333e-01  1.66666667e-01  0.00000000e+00
6.66666667e-01  1.66666667e-01  0.00000000e+00
7.50000000e-01  1.66666667e-01  0.00000000e+00
8.33333333e-01  1.66666667e-01  0.00000000e+00
9.16666667e-01  1.66666667e-01  0.00000000e+00
0.00000000e+00  2.50000000e-01  0.00000000e+00
8.33333333e-02  2.50000000e-01  0.00000000e+00
1.66666667e-01  2.50000000e-01  0.00000000e+00
2.50000000e-01  2.50000000e-01  0.00000000e+00
3.33333333e-01  2.50000000e-01  0.00000000e+00
4.16666667e-01  2.50000000e-01  0.00000000e+00
5.00000000e-01  2.50000000e-01  0.00000000e+00
5.83333333e-01  2.50000000e-01  0.00000000e+00
6.66666667e-01  2.50000000e-01  0.00000000e+00
7.50000000e-01  2.50000000e-01  0.00000000e+00
8.33333333e-01  2.50000000e-01  0.00000000e+00
9.16666667e-01  2.50000000e-01  0.00000000e+00
0.00000000e+00  3.33333333e-01  0.00000000e+00
8.33333333e-02  3.33333333e-01  0.00000000e+00
1.66666667e-01  3.33333333e-01  0.00000000e+00
2.50000000e-01  3.33333333e-01  0.00000000e+00
3.33333333e-01  3.33333333e-01  0.00000000e+00
4.16666667e-01  3.33333333e-01  0.00000000e+00
5.00000000e-01  3.33333333e-01  0.00000000e+00
5.83333333e-01  3.33333333e-01  0.00000000e+00
6.66666667e-01  3.33333333e-01  0.00000000e+00
7.50000000e-01  3.33333333e-01  0.00000000e+00
8.33333333e-01  3.33333333e-01  0.00000000e+00
9.16666667e-01  3.33333333e-01  0.00000000e+00
0.00000000e+00  4.16666667e-01  0.00000000e+00
8.33333333e-02  4.16666667e-01  0.00000000e+00
1.66666667e-01  4.16666667e-01  0.00000000e+00
2.50000000e-01  4.16666667e-01  0.00000000e+00
3.33333333e-01  4.16666667e-01  0.00000000e+00
4.16666667e-01  4.16666667e-01  0.00000000e+00
5.00000000e-01  4.16666667e-01  0.00000000e+00
5.83333333e-01  4.16666667e-01  0.00000000e+00
6.66666667e-01  4.16666667e-01  0.00000000e+00
7.50000000e-01  4.16666667e-01  0.00000000e+00
8.33333333e-01  4.16666667e-01  0.00000000e+00
9.16666667e-01  4.16666667e-01  0.00000000e+00
0.00000000e+00  5.00000000e-01  0.00000000e+00
8.33333333e-02  5.00000000e-01  0.00000000e+00
1.66666667e-01  5.00000000e-01  0.00000000e+00
2.50000000e-01  5.00000000e-01  0.00000000e+00
3.33333333e-01  5.00000000e-01  0.00000000e+00
4.16666667e-01  5.00000000e-01  0.00000000e+00
5.00000000e-01  5.00000000e-01  0.00000000e+00
5.83333333e-01  5.00000000e-01  0.00000000e+00
6.66666667e-01  5.00000000e-01  0.00000000e+00
7.50000000e-01  5.00000000e-01  0.00000000e+00
8.33333333e-01  5.00000000e-01  0.00000000e+00
9.16666667e-01  5.00000000e-01  0.00000000e+00
0.00000000e+00  5.83333333e-01  0.00000000e+00
8.33333333e-02  5.83333333e-01  0.00000000e+00
1.66666667e-01  5.83333333e-01  0.00000000e+00
2.50000000e-01  5.83333333e-01  0.00000000e+00
3.33333333e-01  5.83333333e-01  0.00000000e+00
4.16666667e-01  5.83333333e-01  0.00000000e+00
5.00000000e-01  5.83333333e-01  0.00000000e+00
5.83333333e-01  5.83333333e-01  0.00000000e+00
6.66666667e-01  5.83333333e-01  0.00000000e+00
7.50000000e-01  5.83333333e-01  0.00000000e+00
8.33333333e-01  5.83333333e-01  0.00000000e+00
9.16666667e-01  5.83333333e-01  0.00000000e+00
0.00000000e+00  6.66666667e-01  0.00000000e+00
8.33333333e-02  6.66666667e-01  0.00000000e+00
1.66666667e-01  6.66666667e-01  0.00000000e+00
2.50000000e-01  6.66666667e-01  0.00000000e+00
3.33333333e-01  6.66666667e-01  0.00000000e+00
4.16666667e-01  6.66666667e-01  0.00000000e+00
5.00000000e-01  6.66666667e-01  0.00000000e+00
5.83333333e-01  6.66666667e-01  0.00000000e+00
6.66666667e-01  6.66666667e-01  0.00000000e+00
7.50000000e-01  6.66666667e-01  0.00000000e+00
8.33333333e-01  6.66666667e-01  0.00000000e+00
9.16666667e-01  6.66666667e-01  0.00000000e+00
0.00000000e+00  7.50000000e-01  0.00000000e+00
8.33333333e-02  7.50000000e-01  0.00000000e+00
1.66666667e-01  7.50000000e-01  0.00000000e+00
2.50000000e-01  7.50000000e-01  0.00000000e+00
3.33333333e-01  7.50000000e-01  0.00000000e+00
4.16666667e-01  7.50000000e-01  0.00000000e+00
5.00000000e-01  7.50000000e-01  0.00000000e+00
5.83333333e-01  7.50000000e-01  0.00000000e+00
6.66666667e-01  7.50000000e-01  0.00000000e+00
7.50000000e-01  7.50000000e-01  0.00000000e+00
8.33333333e-01  7.50000000e-01  0.00000000e+00
9.16666667e-01  7.50000000e-01  0.00000000e+00
0.00000000e+00  8.33333333e-01  0.00000000e+00
8.33333333e-02  8.33333333e-01  0.00000000e+00
1.66666667e-01  8.33333333e-01  0.00000000e+00
2.50000000e-01  8.33333333e-01  0.00000000e+00
3.33333333e-01  8.33333333e-01  0.00000000e+00
4.16666667e-01  8.33333333e-01  0.00000000e+00
5.00000000e-01  8.33333333e-01  0.00000000e+00
5.83333333e-01  8.33333333e-01  0.00000000e+00
6.66666667e-01  8.33333333e-01  0.00000000e+00
7.50000000e-01  8.33333333e-01  0.00000000e+00
8.33333333e-01  8.33333333e-01  0.00000000e+00
9.16666667e-01  8.33333333e-01  0.00000000e+00
0.00000000e+00  9.16666667e-01  0.00000000e+00
8.33333333e-02  9.16666667e-01  0.00000000e+00
1.66666667e-01  9.16666667e-01  0.00000000e+00
2.50000000e-01  9.16666667e-01  0.00000000e+00
3.33333333e-01  9.16666667e-01  0.00000000e+00
4.16666667e-01  9.16666667e-01  0.00000000e+00
5.00000000e-01  9.16666667e-01  0.00000000e+00
5.83333333e-01  9.16666667e-01  0.00000000e+00
6.66666667e-01  9.16666667e-01  0.00000000e+00
7.50000000e-01  9.16666667e-01  0.00000000e+00
8.33333333e-01  9.16666667e-01  0.00000000e+00
9.16666667e-01  9.16666667e-01  0.00000000e+00
end kpoints
