&inputpp
  outdir='./tmp'
  prefix = 'MoS2'
  seedname = 'MoS2'
  spin_component = 'none'
  write_mmn = .true.
  write_amn = .true.
  write_unk = .false.
  write_spn = .true.
  spn_formatted = .true.
/
