&CONTROL
    calculation = 'nscf'
    etot_conv_thr =   1.0000000000d-06
    forc_conv_thr =   2.0000000000d-05
    outdir = './tmp'
    prefix = 'MoS2'
    pseudo_dir = '../pseudo/'
    wf_collect  = .true.
!   tprnfor = .true.
!   tstress = .true.
    verbosity = 'high'
/
&SYSTEM
    nspin = 4   ! 1: non-polaized 2: spin-polarized 4: spin-polarzed, noncollinear
    degauss =   7.3498618000d-03
    ecutrho =   800
    ecutwfc =   8.0000000000d+01
    ibrav = 4
    celldm(1) = 5.937701271208027 
    celldm(3) = 8.000000000000000
    nat = 3
    nosym = .false.
    ntyp = 2
    occupations = 'smearing'
    smearing = 'gauss'
    assume_isolated = '2D'
    noncolin = .true.
    lspinorb = .true.
    nbnd = 80
/
&ELECTRONS
    conv_thr =   3.0000000000d-12
    electron_maxstep = 200
    mixing_mode = 'plain'
    mixing_beta = 0.7
    diagonalization = 'david'
    diago_full_acc = .true.
/
&IONS
/
&CELL
    press_conv_thr = 0.01
    press = 0.D0
!    cell_dynamics = 'bfgs'
!    cell_dofree = '2Dxy'  ! 3d: all 2d: 2Dxy
/
ATOMIC_SPECIES
S     32.06 S.rel-pbesol-n-rrkjus_psl.1.0.0.UPF
Mo    95.95 Mo.rel-pbesol-spn-rrkjus_psl.1.0.0.UPF 
ATOMIC_POSITIONS crystal
S             0.0000011533        0.9999988467        0.1796747809
S             0.0000011298        0.9999988702        0.3037863646
Mo            0.6666677413        0.3333322886        0.2417305690
K_POINTS crystal
144
0.00000000e+00  0.00000000e+00  0.00000000e+00  6.94444444e-03
8.33333333e-02  0.00000000e+00  0.00000000e+00  6.94444444e-03
1.66666667e-01  0.00000000e+00  0.00000000e+00  6.94444444e-03
2.50000000e-01  0.00000000e+00  0.00000000e+00  6.94444444e-03
3.33333333e-01  0.00000000e+00  0.00000000e+00  6.94444444e-03
4.16666667e-01  0.00000000e+00  0.00000000e+00  6.94444444e-03
5.00000000e-01  0.00000000e+00  0.00000000e+00  6.94444444e-03
5.83333333e-01  0.00000000e+00  0.00000000e+00  6.94444444e-03
6.66666667e-01  0.00000000e+00  0.00000000e+00  6.94444444e-03
7.50000000e-01  0.00000000e+00  0.00000000e+00  6.94444444e-03
8.33333333e-01  0.00000000e+00  0.00000000e+00  6.94444444e-03
9.16666667e-01  0.00000000e+00  0.00000000e+00  6.94444444e-03
0.00000000e+00  8.33333333e-02  0.00000000e+00  6.94444444e-03
8.33333333e-02  8.33333333e-02  0.00000000e+00  6.94444444e-03
1.66666667e-01  8.33333333e-02  0.00000000e+00  6.94444444e-03
2.50000000e-01  8.33333333e-02  0.00000000e+00  6.94444444e-03
3.33333333e-01  8.33333333e-02  0.00000000e+00  6.94444444e-03
4.16666667e-01  8.33333333e-02  0.00000000e+00  6.94444444e-03
5.00000000e-01  8.33333333e-02  0.00000000e+00  6.94444444e-03
5.83333333e-01  8.33333333e-02  0.00000000e+00  6.94444444e-03
6.66666667e-01  8.33333333e-02  0.00000000e+00  6.94444444e-03
7.50000000e-01  8.33333333e-02  0.00000000e+00  6.94444444e-03
8.33333333e-01  8.33333333e-02  0.00000000e+00  6.94444444e-03
9.16666667e-01  8.33333333e-02  0.00000000e+00  6.94444444e-03
0.00000000e+00  1.66666667e-01  0.00000000e+00  6.94444444e-03
8.33333333e-02  1.66666667e-01  0.00000000e+00  6.94444444e-03
1.66666667e-01  1.66666667e-01  0.00000000e+00  6.94444444e-03
2.50000000e-01  1.66666667e-01  0.00000000e+00  6.94444444e-03
3.33333333e-01  1.66666667e-01  0.00000000e+00  6.94444444e-03
4.16666667e-01  1.66666667e-01  0.00000000e+00  6.94444444e-03
5.00000000e-01  1.66666667e-01  0.00000000e+00  6.94444444e-03
5.83333333e-01  1.66666667e-01  0.00000000e+00  6.94444444e-03
6.66666667e-01  1.66666667e-01  0.00000000e+00  6.94444444e-03
7.50000000e-01  1.66666667e-01  0.00000000e+00  6.94444444e-03
8.33333333e-01  1.66666667e-01  0.00000000e+00  6.94444444e-03
9.16666667e-01  1.66666667e-01  0.00000000e+00  6.94444444e-03
0.00000000e+00  2.50000000e-01  0.00000000e+00  6.94444444e-03
8.33333333e-02  2.50000000e-01  0.00000000e+00  6.94444444e-03
1.66666667e-01  2.50000000e-01  0.00000000e+00  6.94444444e-03
2.50000000e-01  2.50000000e-01  0.00000000e+00  6.94444444e-03
3.33333333e-01  2.50000000e-01  0.00000000e+00  6.94444444e-03
4.16666667e-01  2.50000000e-01  0.00000000e+00  6.94444444e-03
5.00000000e-01  2.50000000e-01  0.00000000e+00  6.94444444e-03
5.83333333e-01  2.50000000e-01  0.00000000e+00  6.94444444e-03
6.66666667e-01  2.50000000e-01  0.00000000e+00  6.94444444e-03
7.50000000e-01  2.50000000e-01  0.00000000e+00  6.94444444e-03
8.33333333e-01  2.50000000e-01  0.00000000e+00  6.94444444e-03
9.16666667e-01  2.50000000e-01  0.00000000e+00  6.94444444e-03
0.00000000e+00  3.33333333e-01  0.00000000e+00  6.94444444e-03
8.33333333e-02  3.33333333e-01  0.00000000e+00  6.94444444e-03
1.66666667e-01  3.33333333e-01  0.00000000e+00  6.94444444e-03
2.50000000e-01  3.33333333e-01  0.00000000e+00  6.94444444e-03
3.33333333e-01  3.33333333e-01  0.00000000e+00  6.94444444e-03
4.16666667e-01  3.33333333e-01  0.00000000e+00  6.94444444e-03
5.00000000e-01  3.33333333e-01  0.00000000e+00  6.94444444e-03
5.83333333e-01  3.33333333e-01  0.00000000e+00  6.94444444e-03
6.66666667e-01  3.33333333e-01  0.00000000e+00  6.94444444e-03
7.50000000e-01  3.33333333e-01  0.00000000e+00  6.94444444e-03
8.33333333e-01  3.33333333e-01  0.00000000e+00  6.94444444e-03
9.16666667e-01  3.33333333e-01  0.00000000e+00  6.94444444e-03
0.00000000e+00  4.16666667e-01  0.00000000e+00  6.94444444e-03
8.33333333e-02  4.16666667e-01  0.00000000e+00  6.94444444e-03
1.66666667e-01  4.16666667e-01  0.00000000e+00  6.94444444e-03
2.50000000e-01  4.16666667e-01  0.00000000e+00  6.94444444e-03
3.33333333e-01  4.16666667e-01  0.00000000e+00  6.94444444e-03
4.16666667e-01  4.16666667e-01  0.00000000e+00  6.94444444e-03
5.00000000e-01  4.16666667e-01  0.00000000e+00  6.94444444e-03
5.83333333e-01  4.16666667e-01  0.00000000e+00  6.94444444e-03
6.66666667e-01  4.16666667e-01  0.00000000e+00  6.94444444e-03
7.50000000e-01  4.16666667e-01  0.00000000e+00  6.94444444e-03
8.33333333e-01  4.16666667e-01  0.00000000e+00  6.94444444e-03
9.16666667e-01  4.16666667e-01  0.00000000e+00  6.94444444e-03
0.00000000e+00  5.00000000e-01  0.00000000e+00  6.94444444e-03
8.33333333e-02  5.00000000e-01  0.00000000e+00  6.94444444e-03
1.66666667e-01  5.00000000e-01  0.00000000e+00  6.94444444e-03
2.50000000e-01  5.00000000e-01  0.00000000e+00  6.94444444e-03
3.33333333e-01  5.00000000e-01  0.00000000e+00  6.94444444e-03
4.16666667e-01  5.00000000e-01  0.00000000e+00  6.94444444e-03
5.00000000e-01  5.00000000e-01  0.00000000e+00  6.94444444e-03
5.83333333e-01  5.00000000e-01  0.00000000e+00  6.94444444e-03
6.66666667e-01  5.00000000e-01  0.00000000e+00  6.94444444e-03
7.50000000e-01  5.00000000e-01  0.00000000e+00  6.94444444e-03
8.33333333e-01  5.00000000e-01  0.00000000e+00  6.94444444e-03
9.16666667e-01  5.00000000e-01  0.00000000e+00  6.94444444e-03
0.00000000e+00  5.83333333e-01  0.00000000e+00  6.94444444e-03
8.33333333e-02  5.83333333e-01  0.00000000e+00  6.94444444e-03
1.66666667e-01  5.83333333e-01  0.00000000e+00  6.94444444e-03
2.50000000e-01  5.83333333e-01  0.00000000e+00  6.94444444e-03
3.33333333e-01  5.83333333e-01  0.00000000e+00  6.94444444e-03
4.16666667e-01  5.83333333e-01  0.00000000e+00  6.94444444e-03
5.00000000e-01  5.83333333e-01  0.00000000e+00  6.94444444e-03
5.83333333e-01  5.83333333e-01  0.00000000e+00  6.94444444e-03
6.66666667e-01  5.83333333e-01  0.00000000e+00  6.94444444e-03
7.50000000e-01  5.83333333e-01  0.00000000e+00  6.94444444e-03
8.33333333e-01  5.83333333e-01  0.00000000e+00  6.94444444e-03
9.16666667e-01  5.83333333e-01  0.00000000e+00  6.94444444e-03
0.00000000e+00  6.66666667e-01  0.00000000e+00  6.94444444e-03
8.33333333e-02  6.66666667e-01  0.00000000e+00  6.94444444e-03
1.66666667e-01  6.66666667e-01  0.00000000e+00  6.94444444e-03
2.50000000e-01  6.66666667e-01  0.00000000e+00  6.94444444e-03
3.33333333e-01  6.66666667e-01  0.00000000e+00  6.94444444e-03
4.16666667e-01  6.66666667e-01  0.00000000e+00  6.94444444e-03
5.00000000e-01  6.66666667e-01  0.00000000e+00  6.94444444e-03
5.83333333e-01  6.66666667e-01  0.00000000e+00  6.94444444e-03
6.66666667e-01  6.66666667e-01  0.00000000e+00  6.94444444e-03
7.50000000e-01  6.66666667e-01  0.00000000e+00  6.94444444e-03
8.33333333e-01  6.66666667e-01  0.00000000e+00  6.94444444e-03
9.16666667e-01  6.66666667e-01  0.00000000e+00  6.94444444e-03
0.00000000e+00  7.50000000e-01  0.00000000e+00  6.94444444e-03
8.33333333e-02  7.50000000e-01  0.00000000e+00  6.94444444e-03
1.66666667e-01  7.50000000e-01  0.00000000e+00  6.94444444e-03
2.50000000e-01  7.50000000e-01  0.00000000e+00  6.94444444e-03
3.33333333e-01  7.50000000e-01  0.00000000e+00  6.94444444e-03
4.16666667e-01  7.50000000e-01  0.00000000e+00  6.94444444e-03
5.00000000e-01  7.50000000e-01  0.00000000e+00  6.94444444e-03
5.83333333e-01  7.50000000e-01  0.00000000e+00  6.94444444e-03
6.66666667e-01  7.50000000e-01  0.00000000e+00  6.94444444e-03
7.50000000e-01  7.50000000e-01  0.00000000e+00  6.94444444e-03
8.33333333e-01  7.50000000e-01  0.00000000e+00  6.94444444e-03
9.16666667e-01  7.50000000e-01  0.00000000e+00  6.94444444e-03
0.00000000e+00  8.33333333e-01  0.00000000e+00  6.94444444e-03
8.33333333e-02  8.33333333e-01  0.00000000e+00  6.94444444e-03
1.66666667e-01  8.33333333e-01  0.00000000e+00  6.94444444e-03
2.50000000e-01  8.33333333e-01  0.00000000e+00  6.94444444e-03
3.33333333e-01  8.33333333e-01  0.00000000e+00  6.94444444e-03
4.16666667e-01  8.33333333e-01  0.00000000e+00  6.94444444e-03
5.00000000e-01  8.33333333e-01  0.00000000e+00  6.94444444e-03
5.83333333e-01  8.33333333e-01  0.00000000e+00  6.94444444e-03
6.66666667e-01  8.33333333e-01  0.00000000e+00  6.94444444e-03
7.50000000e-01  8.33333333e-01  0.00000000e+00  6.94444444e-03
8.33333333e-01  8.33333333e-01  0.00000000e+00  6.94444444e-03
9.16666667e-01  8.33333333e-01  0.00000000e+00  6.94444444e-03
0.00000000e+00  9.16666667e-01  0.00000000e+00  6.94444444e-03
8.33333333e-02  9.16666667e-01  0.00000000e+00  6.94444444e-03
1.66666667e-01  9.16666667e-01  0.00000000e+00  6.94444444e-03
2.50000000e-01  9.16666667e-01  0.00000000e+00  6.94444444e-03
3.33333333e-01  9.16666667e-01  0.00000000e+00  6.94444444e-03
4.16666667e-01  9.16666667e-01  0.00000000e+00  6.94444444e-03
5.00000000e-01  9.16666667e-01  0.00000000e+00  6.94444444e-03
5.83333333e-01  9.16666667e-01  0.00000000e+00  6.94444444e-03
6.66666667e-01  9.16666667e-01  0.00000000e+00  6.94444444e-03
7.50000000e-01  9.16666667e-01  0.00000000e+00  6.94444444e-03
8.33333333e-01  9.16666667e-01  0.00000000e+00  6.94444444e-03
9.16666667e-01  9.16666667e-01  0.00000000e+00  6.94444444e-03

