Phonons on a uniform grid
&inputph
  verbosity='debug'
  tr2_ph=1.0d-17
  prefix='MoS2'
  ldisp=.true.
!  epsil=.true.
  lqdir=.true.
  outdir='./tmp'
  fildyn  = 'MoS2.dyn.xml'
  fildvscf = 'dvscf'
  nq1=12, nq2=12, nq3=1,
  nk1=12, nk2=12, nk3=1,
/
