&input
  fildyn = 'MoS2.dyn.xml'
  zasr = 'zero-dim'
  flfrc = 'MoS2.fc'
/
